peakDumbCharging = 11100; 
Machine = anon_enum(16); 
machineSpeed = [3700,3700,3700,3700,3700,3700,3700,3700,3700,3700,3700,3700,3700,3700,3700,3700]; 
machineLoad = [3700,3700,3700,3700,3700,3700,3700,3700,3700,3700,3700,3700,3700,3700,3700,3700]; 
Car = anon_enum(9); 
demandCar = [10880,7680,1760,13680,4240,5280,12240,6280,11960]; 
arrivalCar = [75,59,57,56,55,53,51,41,40]; 
departureCar = [81,62,59,67,57,57,56,46,46]; 
